128 76
85 118 49 109 114 74 88 83 116 91 115 55 48 64 126 63 15 39 10 68 3 22 16 44 66 28 50 82 36 94 93 61 121 52 89 125 124 92 11 108 73 100 112 6 37 58 41 43 27 46 35 78 33 101 2 40 42 122 127 123 107 104 75 120 1 79 87 34 69 56 103 57 71 25 72 12 7 45 67 111 113 19 70 90 47 99 97 106 117 20 26 84 62 105 24 53 21 14 60 76 110 30 8 9 38 23 59 18 51 31 102 13 98 29 86 95 80 4 54 5 119 32 77 81 128 96 17 65 
